benchmarks/VRPTW/TSPTW/solution/n80w100.003.txt.solution
1 60 55 29 6 52 19 70 43 33 48 65 39 10 38 2 53 79 68 73 41 75 8 77 36 51 40 63 15 11 22 28 80 57 42 18 16 61 45 26 32 66 34 24 37 76 4 25 67 3 72 23 14 46 62 31 74 44 49 47 50 71 58 30 35 27 7 13 78 12 54 21 64 59 56 17 81 5 69 9 20 
580
